20 
300 
4.6 7.1 0 0
5 5.6 0 -60
5.7 11.4 -20 -99
4.4 12.3 20 -12
2.8 14.3 -30 -127
3.2 10.3 -15 -104
3.5 9.8 -15 -121
4.4 8.4 10 -26
7.8 11 -20 -118
8.8 9.8 20 -21
7.7 8.2 -20 -78
6.3 7.9 -15 -75
5.4 8.2 10 -28
5.8 6.8 10 -14
6.7 5.8 -25 -109
13.8 13.1 -40 -106
14.1 14.2 40 -22
11.2 13.6 -30 -60
9.7 16.4 30 -21
9.5 18.8 -50 -112
4.7 16.8 30 -18
